10
1 0 18
2 1 15
3 0 1
3 1 11
4 0 16
4 1 12
4 2 14
4 3 3
5 1 2
5 2 6
5 4 3
6 0 5
6 1 18
6 2 20
6 3 15
6 4 8
6 5 14
7 0 14
7 1 20
7 2 7
7 3 5
7 4 5
7 5 7
7 6 10
8 0 8
8 1 15
8 3 14
8 5 9
8 6 5
8 7 19
9 0 9
9 1 9
9 2 18
9 4 10
9 5 5
9 6 20
9 8 4
